sing20150725.12
TTAA  75121 48698
99008 30450 20004 00089 29856 13514 92779 23431 14008
85514 19257 15004 70155 09866 16507 50587 04758 06009
40759 16169 07509 30969 30770 14016 25096 41157 09017
20243 54147 08023 15422 66750 03533 10659 79150 08007
88999
77999=
TTCC  75127 48698
70867 64157 11017
88967 79956 07514
77999=
TTDD  7512/ 48698
11967 79956 22916 77956 33890 78758 44839 76957 55771
68750 66707 64357 77673 65167 88662 65578 99644 645//
21212 11970 07513 22925 10033 33903 09532 44842 08044
55823 08045 66787 06530 77769 06535 88734 07031 99718
08526 11702 10518 22687 14014 33672 16016 44659 16017
55644 15517=
